; benchmark generated from rust API
(set-info :status unknown)
(declare-fun x_1_m2 () Int)
(declare-fun y_1_m1 () Int)
(declare-fun sim_1_1 () Bool)
(declare-fun x_0_m2 () Int)
(declare-fun sim_1_0 () Bool)
(declare-fun y_0_m1 () Int)
(declare-fun sim_0_1 () Bool)
(declare-fun sim_0_0 () Bool)
(assert
 (let (($x39 (= x_1_m2 1)))
 (let (($x68 (= x_1_m2 2)))
 (let (($x83 (ite $x68 $x39 (ite true (= x_1_m2 x_1_m2) (= x_1_m2 x_1_m2)))))
 (let (($x69 (or $x39 $x68)))
 (let (($x85 (and (ite $x39 $x69 $x83))))
 (let (($x28 (= x_0_m2 1)))
 (let (($x77 (ite $x68 $x28 (ite true (= x_0_m2 x_1_m2) (= x_0_m2 x_1_m2)))))
 (let (($x59 (= x_0_m2 2)))
 (let (($x61 (or $x28 $x59)))
 (let (($x79 (and (ite $x39 $x61 $x77))))
 (let (($x104 (or (and $x79 sim_1_0) (and $x85 sim_1_1))))
 (let (($x67 (ite $x59 $x39 (ite true (= x_1_m2 x_0_m2) (= x_1_m2 x_0_m2)))))
 (let (($x71 (and (ite $x28 $x69 $x67))))
 (let (($x60 (ite $x59 $x28 (ite true (= x_0_m2 x_0_m2) (= x_0_m2 x_0_m2)))))
 (let (($x63 (and (ite $x28 $x61 $x60))))
 (let (($x100 (or (and $x63 sim_1_0) (and $x71 sim_1_1))))
 (let (($x93 (= y_1_m1 2)))
 (let (($x44 (= y_1_m1 1)))
 (let (($x94 (or $x44 $x93)))
 (let (($x118 (ite $x93 $x94 (ite true (= y_1_m1 y_1_m1) (= y_1_m1 y_1_m1)))))
 (let (($x124 (=> (and (ite $x44 $x93 $x118)) (and (=> sim_1_0 $x100) (=> sim_1_1 $x104)))))
 (let (($x114 (and (=> sim_1_0 (or (and $x63 sim_0_0) (and $x71 sim_0_1))) (=> sim_1_1 (or (and $x79 sim_0_0) (and $x85 sim_0_1))))))
 (let (($x52 (= y_0_m1 2)))
 (let (($x27 (= y_0_m1 1)))
 (let (($x53 (or $x27 $x52)))
 (let (($x109 (ite $x93 $x53 (ite true (= y_0_m1 y_1_m1) (= y_0_m1 y_1_m1)))))
 (let (($x95 (ite $x52 $x94 (ite true (= y_1_m1 y_0_m1) (= y_1_m1 y_0_m1)))))
 (let (($x107 (=> (and (ite $x27 $x93 $x95)) (and (=> sim_0_0 $x100) (=> sim_0_1 $x104)))))
 (let (($x89 (and (=> sim_0_0 (or (and $x63 sim_0_0) (and $x71 sim_0_1))) (=> sim_0_1 (or (and $x79 sim_0_0) (and $x85 sim_0_1))))))
 (let (($x54 (ite $x52 $x53 (ite true (= y_0_m1 y_0_m1) (= y_0_m1 y_0_m1)))))
 (let (($x49 (=> (and $x44) (or (and (and $x28) sim_1_0) (and (and $x39) sim_1_1)))))
 (let (($x43 (=> (and $x27) (or (and (and $x28) sim_0_0) (and (and $x39) sim_0_1)))))
 (let (($x34 (and (and (and (>= y_0_m1 1) (<= y_0_m1 2))) (and (and (>= y_1_m1 1) (<= y_1_m1 2))))))
 (let (($x19 (<= y_1_m1 2)))
 (let (($x18 (>= y_1_m1 1)))
 (let (($x20 (and $x18 $x19)))
 (let (($x16 (<= y_0_m1 2)))
 (let (($x14 (>= y_0_m1 1)))
 (let (($x17 (and $x14 $x16)))
 (and $x17 $x20 (and (>= x_0_m2 1) (<= x_0_m2 2)) (and (>= x_1_m2 1) (<= x_1_m2 2)) $x27 $x28 (=> $x34 (or (not (= y_0_m1 y_1_m1)))) $x43 $x49 (=> (and (ite $x27 $x52 $x54)) $x89) $x107 (=> (and (ite $x44 $x52 $x109)) $x114) $x124 (=> sim_0_0 (= y_0_m1 x_0_m2)) (=> sim_0_1 (= y_0_m1 x_1_m2)) (=> sim_1_0 (= y_1_m1 x_0_m2)) (=> sim_1_1 (= y_1_m1 x_1_m2)))))))))))))))))))))))))))))))))))))))))))
(check-sat)
